SPARKNaCl/why3-cvc5/sparknacl-aes.adb_769_49_overflow_check_1.smt2
;; produced by cvc5.drv ;;
(set-logic ALL)
(set-info :smt-lib-version 2.6)
;;; generated by SMT-LIB2 driver
;;; SMT-LIB2 driver: bit-vectors, common part
;;; SMT-LIB2: integer arithmetic
;; "pow2"
(declare-fun pow2 (Int) Int)

(declare-const two_power_size_minus_one Int)

;; "two_power_size_minus_one_val"
(assert (= two_power_size_minus_one (pow2 (- 32 1))))

;; "min"
(define-fun min ((x Int) (y Int)) Int
  (ite (<= x y) x y))

;; "max"
(define-fun max ((x Int) (y Int)) Int
  (ite (<= x y) y x))

;; "Min_r"
(assert (forall ((x Int) (y Int)) (=> (<= y x) (= (min x y) y))))

;; "Max_l"
(assert (forall ((x Int) (y Int)) (=> (<= y x) (= (max x y) x))))

;; "Min_comm"
(assert (forall ((x Int) (y Int)) (= (min x y) (min y x))))

;; "Max_comm"
(assert (forall ((x Int) (y Int)) (= (max x y) (max y x))))

;; "Min_assoc"
(assert
  (forall ((x Int) (y Int) (z Int)) (= (min (min x y) z) (min x (min y z)))))

;; "Max_assoc"
(assert
  (forall ((x Int) (y Int) (z Int)) (= (max (max x y) z) (max x (max y z)))))

(declare-sort u32 0)

;; "to_rep"
(declare-fun to_rep (u32) (_ BitVec 32))

;; "of_rep"
(declare-fun of_rep ((_ BitVec 32)) u32)

;; "inversion_axiom"
(assert
  (forall ((x u32)) (! (= (of_rep (to_rep x)) x) :pattern ((to_rep x)) )))

;; "range_axiom"
(assert true)

;; "coerce_axiom"
(assert
  (forall ((x (_ BitVec 32)))
    (! (= (to_rep (of_rep x)) x) :pattern ((to_rep (of_rep x))) )))

(declare-sort map1 0)

;; "has_bounds"
(declare-fun has_bounds (map1
  Int
  Int) Bool)

(declare-sort map2 0)

;; "has_bounds"
(declare-fun has_bounds1 (map2
  Int
  Int) Bool)

;; "get"
(declare-fun get (map2
  Int) map1)

(declare-datatypes ((us_split_fields 0))
  (((us_split_fieldsqtmk
    (rec__ada___sparknacl__aes__aes256_round_keys__f map2)))))

(declare-datatypes ((us_rep 0))
  (((us_repqtmk (us_split_fields1 us_split_fields)))))

;; "in_range"
(define-fun in_range ((x Int)) Bool
  (and (<= 0 x) (<= x 14)))

;; "dynamic_invariant"
(define-fun dynamic_invariant ((temp___expr_503 us_rep) (temp___is_init_499 Bool) (temp___skip_constant_500 Bool) (temp___do_toplevel_501 Bool) (temp___do_typ_inv_502 Bool)) Bool
  (and
    (has_bounds1
      (rec__ada___sparknacl__aes__aes256_round_keys__f
        (us_split_fields1 temp___expr_503))
      0
      14)
    (forall ((temp___504 Int))
      (=>
        (and (<= 0 temp___504) (<= temp___504 14))
        (has_bounds
          (get
            (rec__ada___sparknacl__aes__aes256_round_keys__f
              (us_split_fields1 temp___expr_503))
            temp___504)
          0
          3)))))

(declare-const two_power_size_minus_one1 Int)

;; "two_power_size_minus_one_val"
(assert (= two_power_size_minus_one1 (pow2 (- 8 1))))

(declare-sort byte 0)

;; "to_rep"
(declare-fun to_rep1 (byte) (_ BitVec 8))

;; "of_rep"
(declare-fun of_rep1 ((_ BitVec 8)) byte)

;; "inversion_axiom"
(assert
  (forall ((x byte)) (! (= (of_rep1 (to_rep1 x)) x) :pattern ((to_rep1 x)) )))

;; "range_axiom"
(assert true)

;; "coerce_axiom"
(assert
  (forall ((x (_ BitVec 8)))
    (! (= (to_rep1 (of_rep1 x)) x) :pattern ((to_rep1 (of_rep1 x))) )))

(declare-sort map3 0)

;; "has_bounds"
(declare-fun has_bounds2 (map3
  Int
  Int) Bool)

(declare-const input map3)

(declare-const round_keys us_rep)

;; "construct_state"
(declare-fun construct_state (map3) map1)

;; "construct_state__function_guard"
(declare-fun construct_state__function_guard (map1
  map3) Bool)

;; Goal "def'vc"
;; File "sparknacl-aes.ads", line 73, characters 0-0
(assert
  (not
  (forall ((output map3))
    (=>
      (has_bounds2 output 0 15)
      (=>
        (has_bounds2 input 0 15)
        (=>
          (dynamic_invariant round_keys true false true true)
          (forall ((key_index Int))
            (=>
              (= key_index 14)
              (=>
                (in_range key_index)
                (let ((o input))
                  (let ((o1 (construct_state o)))
                    (=>
                      (and
                        (construct_state__function_guard o1 o)
                        (has_bounds o1 0 3))
                      (forall ((state map1))
                        (=>
                          (= state o1)
                          (=>
                            (has_bounds state 0 3)
                            (forall ((state1 map1))
                              (=>
                                (has_bounds state1 0 3)
                                (not (= key_index (- 2147483648))))))))))))))))))))

(check-sat)
